
%FILE DATA:	Soccer Computational Problem for MiniZinc Models	%
%AUTHOR:	Jack Wall	%
%CONTACT:  	116397063@umail.ucc.ie			%
%LAST UPDATE:	03/03/2020, 12:08:58						%
%DESCRIPTION: 	48 games played with 8 games left				%


n=8; %number of teams

%Games to play
games=[|5,7|4,8|5,3|6,2|8,7|5,4|3,4|1,7|];

%Initial points
iPoints=[13,11,18,18,17,20,20,13];

%POSITION CONSTRAINTS
% [|teamID, operator, position|...]
% operators index:
%  1 for =  operator
%  2 for >  operator
%  3 for >= operator
%  4 for <  operator
%  5 for <= operator
positionConstraints=[|3,3,1|7,2,1|6,5,3|];